c PicoSAT SAT Solver Version 965
c Copyright (c) 2006 - 2014 Armin Biere JKU Linz
c gcc -g -O2 -fdebug-prefix-map=/build/picosat-jdRevn/picosat-965=. -fstack-protector-strong -Wformat -Werror=format-security
c
c using 2 as default phase
c
c parsing infile.cnf
c parsed header 'p cnf 2730 125244'
c initialized 2730 variables
c found 125244 non trivial clauses
c
c random number generator seed 0
c 
c  seconds     variables   original    learned     agility
c         level        used      conflicts    limit          MB
c 
c 0   0.1   0.0  1806  38.1   729     1     0     0   0.0   2.8 
c 
c  seconds     variables   original    learned     agility
c         level        used      conflicts    limit          MB
c 
s UNSATISFIABLE
c
c 0 iterations
c 0 restarts
c 0 failed literals
c 1 conflicts
c 0 decisions
c 924 fixed variables
c 1099 learned literals
c 0.0% deleted literals
c 0 propagations
c 0 visits
c 38.1% variables used
c 0.1 seconds in library
c 0.0 megaprops/second
c 0.0 megavisits/second
c probing 0.0 seconds 0%
c 0 simplifications
c 0 reductions
c 0.0 MB recycled
c 2.8 MB maximally allocated
c 0.1 seconds total run time
